StudentsNr = 10;
InstructorsNr = 81;
DaysNr = 2;
SlotsPerDay = 15;
AvailabilitySlotsLenght = 15;
RoomNr = 2;
ProgrammNr = 2;
DegreeNr = 3;
RolesNr = 3;
CoursesNr = 1;
InstructorsProgramm = [{1}, {2}, {1}, {2}, {2}, {2}, {1, 2}, {1, 2}, {2}, {1, 2}, {2}, {1}, {1, 2}, {2}, {1}, {1, 2}, {1}, {2}, {1, 2}, {1, 2}, {2}, {1, 2}, {1}, {1}, {1, 2}, {2}, {1, 2}, {1, 2}, {2}, {2}, {2}, {2}, {1, 2}, {2}, {1}, {1}, {1}, {1}, {2}, {2}, {1}, {1, 2}, {1}, {1}, {1}, {1}, {1, 2}, {2}, {1, 2}, {1, 2}, {1}, {1}, {2}, {1}, {1, 2}, {1}, {2}, {2}, {1, 2}, {2}, {1}, {1}, {1}, {1}, {2}, {2}, {1}, {1, 2}, {1}, {1, 2}, {2}, {1, 2}, {2}, {2}, {1}, {1, 2}, {1}, {1}, {1, 2}, {1, 2}, {1}];
InstructorRolesPerProgramm = [|{1, 7, 15, 17, 22, 23, 25, 28, 33, 35, 44, 46, 51, 62, 68, 69, 76, 77, 80, 81}, {3, 10, 16, 17, 19, 20, 27, 33, 35, 38, 49, 50, 51, 55, 59, 63, 68, 72, 75, 77}, {1, 3, 7, 8, 13, 19, 20, 24, 25, 28, 33, 36, 37, 44, 45, 46, 52, 55, 62, 63, 67, 68, 69, 70, 75, 77, 78, 80, 81}|{2, 7, 22, 25, 28, 29, 33, 34, 68, 76, 80}, {2, 4, 9, 10, 14, 16, 19, 20, 21, 26, 27, 30, 33, 34, 40, 49, 50, 55, 57, 58, 59, 65, 68, 72, 73}, {2, 4, 5, 7, 8, 11, 13, 14, 19, 20, 25, 26, 28, 29, 30, 33, 39, 48, 55, 57, 65, 68, 70, 71, 80}|];
InstructorsAvailability = [|1, 0, |0, 0, |1, 1, |0, 0, |1, 0, |1, 1, |1, 1, |1, 0, |1, 1, |0, 0, |0, 1, |1, 1, |1, 1, |1, 0, |1, 1, |0, 0, |1, 1, |0, 0, |0, 0, |0, 1, |1, 1, |1, 1, |0, 1, |0, 1, |0, 0, |0, 1, |1, 0, |1, 0, |0, 1, |0, 1, |0, 1, |0, 1, |0, 1, |0, 1, |1, 1, |1, 1, |0, 1, |0, 0, |1, 1, |1, 1, |0, 0, |1, 0, |0, 1, |0, 1, |0, 0, |1, 1, |0, 1, |1, 1, |0, 0, |1, 1, |1, 1, |1, 1, |1, 1, |0, 1, |1, 1, |0, 0, |0, 1, |1, 1, |0, 0, |1, 1, |0, 1, |0, 1, |1, 1, |0, 0, |1, 1, |0, 0, |1, 1, |1, 1, |1, 1, |0, 1, |1, 1, |1, 1, |1, 1, |1, 1, |0, 0, |0, 1, |1, 1, |0, 1, |0, 1, |0, 1, |1, 1|];
StudentsProgramm = [2, 2, 1, 1, 2, 1, 1, 2, 1, 2];
StudentsDegree = [1, 2, 3, 1, 3, 1, 3, 2, 3, 1];
StudentsSupervisorId = [25, 27, 19, 13, 22, 16, 41, 68, 51, 10];
StudentsCourseIds = [{1}, {1}, {}, {1}, {}, {1}, {}, {1}, {}, {1}];
StudentsAvailability = [|1, 1, |1, 0, |0, 1, |1, 1, |0, 1, |0, 1, |0, 0, |0, 1, |0, 0, |1, 1|];
TheoryticalMinCard = [0, 0, 0, 0, 0, 0, 1, 0, 0, 0];
CoursesInstructorIds = [{2, 5, 8, 11, 13, 14, 15, 20, 23, 24, 25, 27, 28, 29, 30, 31, 32, 40, 44, 46, 52, 53, 54, 55, 56, 58, 62, 65, 68, 69, 72, 75, 76, 77, 78, 79, 80}];
RolesDemands = [6, 13, 2];
RolesContinuity = [];
ExamLen = [2, 1, 1, 2, 1, 2, 1, 1, 1, 2];
LunchTsMinLen = 0;
LunchStarts = [4..11, 20..26];
SupervisorAvailable = 0;
OptimalLunchLenght = [3, 1];
OptimalStartTs = [2, 0];
OptimalFinishTs = [0, 15];
MinimizeRooms = 100;
RolesSoftContinuity = [|1, 2, 3|4, 0, 0|];
SameDegreeInRoom = 0;
Mergeability = 2;
